c File: flat50_3_0.col
c
c SOURCE: Joseph Culberson (joe@cs.ualberta.ca)
c DESCRIPTION: Quasi-random coloring problem
c              generated with flatness = 0
c                             probability = 0.139
c                             known coloring = 3
c                             random seed = 1612
c              Creation Date:  Tue Jun  9 12:13:34 1998
c Maximum degree = 7 Minimum degree = 1
c p edge 50 115
c cnf created by edge2cnf
p cnf 150 545
-1 -2 0
-1 -3 0
-2 -3 0
1 2 3 0
-4 -5 0
-4 -6 0
-5 -6 0
4 5 6 0
-7 -8 0
-7 -9 0
-8 -9 0
7 8 9 0
-10 -11 0
-10 -12 0
-11 -12 0
10 11 12 0
-13 -14 0
-13 -15 0
-14 -15 0
13 14 15 0
-16 -17 0
-16 -18 0
-17 -18 0
16 17 18 0
-19 -20 0
-19 -21 0
-20 -21 0
19 20 21 0
-22 -23 0
-22 -24 0
-23 -24 0
22 23 24 0
-25 -26 0
-25 -27 0
-26 -27 0
25 26 27 0
-28 -29 0
-28 -30 0
-29 -30 0
28 29 30 0
-31 -32 0
-31 -33 0
-32 -33 0
31 32 33 0
-34 -35 0
-34 -36 0
-35 -36 0
34 35 36 0
-37 -38 0
-37 -39 0
-38 -39 0
37 38 39 0
-40 -41 0
-40 -42 0
-41 -42 0
40 41 42 0
-43 -44 0
-43 -45 0
-44 -45 0
43 44 45 0
-46 -47 0
-46 -48 0
-47 -48 0
46 47 48 0
-49 -50 0
-49 -51 0
-50 -51 0
49 50 51 0
-52 -53 0
-52 -54 0
-53 -54 0
52 53 54 0
-55 -56 0
-55 -57 0
-56 -57 0
55 56 57 0
-58 -59 0
-58 -60 0
-59 -60 0
58 59 60 0
-61 -62 0
-61 -63 0
-62 -63 0
61 62 63 0
-64 -65 0
-64 -66 0
-65 -66 0
64 65 66 0
-67 -68 0
-67 -69 0
-68 -69 0
67 68 69 0
-70 -71 0
-70 -72 0
-71 -72 0
70 71 72 0
-73 -74 0
-73 -75 0
-74 -75 0
73 74 75 0
-76 -77 0
-76 -78 0
-77 -78 0
76 77 78 0
-79 -80 0
-79 -81 0
-80 -81 0
79 80 81 0
-82 -83 0
-82 -84 0
-83 -84 0
82 83 84 0
-85 -86 0
-85 -87 0
-86 -87 0
85 86 87 0
-88 -89 0
-88 -90 0
-89 -90 0
88 89 90 0
-91 -92 0
-91 -93 0
-92 -93 0
91 92 93 0
-94 -95 0
-94 -96 0
-95 -96 0
94 95 96 0
-97 -98 0
-97 -99 0
-98 -99 0
97 98 99 0
-100 -101 0
-100 -102 0
-101 -102 0
100 101 102 0
-103 -104 0
-103 -105 0
-104 -105 0
103 104 105 0
-106 -107 0
-106 -108 0
-107 -108 0
106 107 108 0
-109 -110 0
-109 -111 0
-110 -111 0
109 110 111 0
-112 -113 0
-112 -114 0
-113 -114 0
112 113 114 0
-115 -116 0
-115 -117 0
-116 -117 0
115 116 117 0
-118 -119 0
-118 -120 0
-119 -120 0
118 119 120 0
-121 -122 0
-121 -123 0
-122 -123 0
121 122 123 0
-124 -125 0
-124 -126 0
-125 -126 0
124 125 126 0
-127 -128 0
-127 -129 0
-128 -129 0
127 128 129 0
-130 -131 0
-130 -132 0
-131 -132 0
130 131 132 0
-133 -134 0
-133 -135 0
-134 -135 0
133 134 135 0
-136 -137 0
-136 -138 0
-137 -138 0
136 137 138 0
-139 -140 0
-139 -141 0
-140 -141 0
139 140 141 0
-142 -143 0
-142 -144 0
-143 -144 0
142 143 144 0
-145 -146 0
-145 -147 0
-146 -147 0
145 146 147 0
-148 -149 0
-148 -150 0
-149 -150 0
148 149 150 0
-55 -1 0
-56 -2 0
-57 -3 0
-94 -1 0
-95 -2 0
-96 -3 0
-103 -1 0
-104 -2 0
-105 -3 0
-109 -1 0
-110 -2 0
-111 -3 0
-139 -1 0
-140 -2 0
-141 -3 0
-58 -4 0
-59 -5 0
-60 -6 0
-70 -4 0
-71 -5 0
-72 -6 0
-76 -4 0
-77 -5 0
-78 -6 0
-145 -4 0
-146 -5 0
-147 -6 0
-64 -7 0
-65 -8 0
-66 -9 0
-115 -7 0
-116 -8 0
-117 -9 0
-130 -7 0
-131 -8 0
-132 -9 0
-136 -7 0
-137 -8 0
-138 -9 0
-139 -7 0
-140 -8 0
-141 -9 0
-58 -10 0
-59 -11 0
-60 -12 0
-70 -10 0
-71 -11 0
-72 -12 0
-88 -10 0
-89 -11 0
-90 -12 0
-91 -10 0
-92 -11 0
-93 -12 0
-133 -10 0
-134 -11 0
-135 -12 0
-70 -13 0
-71 -14 0
-72 -15 0
-82 -13 0
-83 -14 0
-84 -15 0
-106 -13 0
-107 -14 0
-108 -15 0
-112 -13 0
-113 -14 0
-114 -15 0
-115 -13 0
-116 -14 0
-117 -15 0
-142 -13 0
-143 -14 0
-144 -15 0
-76 -16 0
-77 -17 0
-78 -18 0
-118 -16 0
-119 -17 0
-120 -18 0
-121 -16 0
-122 -17 0
-123 -18 0
-67 -19 0
-68 -20 0
-69 -21 0
-88 -19 0
-89 -20 0
-90 -21 0
-67 -22 0
-68 -23 0
-69 -24 0
-91 -22 0
-92 -23 0
-93 -24 0
-100 -22 0
-101 -23 0
-102 -24 0
-130 -22 0
-131 -23 0
-132 -24 0
-142 -22 0
-143 -23 0
-144 -24 0
-148 -22 0
-149 -23 0
-150 -24 0
-52 -25 0
-53 -26 0
-54 -27 0
-61 -25 0
-62 -26 0
-63 -27 0
-64 -28 0
-65 -29 0
-66 -30 0
-79 -28 0
-80 -29 0
-81 -30 0
-100 -28 0
-101 -29 0
-102 -30 0
-106 -28 0
-107 -29 0
-108 -30 0
-139 -28 0
-140 -29 0
-141 -30 0
-61 -31 0
-62 -32 0
-63 -33 0
-79 -31 0
-80 -32 0
-81 -33 0
-91 -31 0
-92 -32 0
-93 -33 0
-112 -31 0
-113 -32 0
-114 -33 0
-127 -31 0
-128 -32 0
-129 -33 0
-70 -34 0
-71 -35 0
-72 -36 0
-88 -34 0
-89 -35 0
-90 -36 0
-97 -34 0
-98 -35 0
-99 -36 0
-118 -34 0
-119 -35 0
-120 -36 0
-121 -34 0
-122 -35 0
-123 -36 0
-139 -34 0
-140 -35 0
-141 -36 0
-142 -34 0
-143 -35 0
-144 -36 0
-55 -37 0
-56 -38 0
-57 -39 0
-58 -37 0
-59 -38 0
-60 -39 0
-61 -37 0
-62 -38 0
-63 -39 0
-88 -37 0
-89 -38 0
-90 -39 0
-109 -37 0
-110 -38 0
-111 -39 0
-148 -37 0
-149 -38 0
-150 -39 0
-58 -40 0
-59 -41 0
-60 -42 0
-85 -40 0
-86 -41 0
-87 -42 0
-148 -40 0
-149 -41 0
-150 -42 0
-79 -43 0
-80 -44 0
-81 -45 0
-94 -43 0
-95 -44 0
-96 -45 0
-97 -43 0
-98 -44 0
-99 -45 0
-100 -43 0
-101 -44 0
-102 -45 0
-130 -43 0
-131 -44 0
-132 -45 0
-133 -43 0
-134 -44 0
-135 -45 0
-136 -43 0
-137 -44 0
-138 -45 0
-73 -46 0
-74 -47 0
-75 -48 0
-106 -46 0
-107 -47 0
-108 -48 0
-118 -46 0
-119 -47 0
-120 -48 0
-106 -49 0
-107 -50 0
-108 -51 0
-109 -49 0
-110 -50 0
-111 -51 0
-121 -49 0
-122 -50 0
-123 -51 0
-118 -52 0
-119 -53 0
-120 -54 0
-133 -52 0
-134 -53 0
-135 -54 0
-145 -52 0
-146 -53 0
-147 -54 0
-109 -55 0
-110 -56 0
-111 -57 0
-133 -55 0
-134 -56 0
-135 -57 0
-136 -58 0
-137 -59 0
-138 -60 0
-124 -61 0
-125 -62 0
-126 -63 0
-106 -64 0
-107 -65 0
-108 -66 0
-115 -64 0
-116 -65 0
-117 -66 0
-145 -64 0
-146 -65 0
-147 -66 0
-103 -67 0
-104 -68 0
-105 -69 0
-109 -67 0
-110 -68 0
-111 -69 0
-139 -67 0
-140 -68 0
-141 -69 0
-145 -67 0
-146 -68 0
-147 -69 0
-112 -70 0
-113 -71 0
-114 -72 0
-124 -70 0
-125 -71 0
-126 -72 0
-124 -73 0
-125 -74 0
-126 -75 0
-118 -76 0
-119 -77 0
-120 -78 0
-136 -76 0
-137 -77 0
-138 -78 0
-124 -79 0
-125 -80 0
-126 -81 0
-136 -79 0
-137 -80 0
-138 -81 0
-115 -82 0
-116 -83 0
-117 -84 0
-142 -82 0
-143 -83 0
-144 -84 0
-148 -82 0
-149 -83 0
-150 -84 0
-139 -85 0
-140 -86 0
-141 -87 0
-106 -91 0
-107 -92 0
-108 -93 0
-133 -91 0
-134 -92 0
-135 -93 0
-109 -94 0
-110 -95 0
-111 -96 0
-115 -94 0
-116 -95 0
-117 -96 0
-121 -94 0
-122 -95 0
-123 -96 0
-145 -94 0
-146 -95 0
-147 -96 0
-112 -97 0
-113 -98 0
-114 -99 0
-115 -97 0
-116 -98 0
-117 -99 0
-148 -97 0
-149 -98 0
-150 -99 0
-103 -100 0
-104 -101 0
-105 -102 0
-130 -100 0
-131 -101 0
-132 -102 0
-136 -100 0
-137 -101 0
-138 -102 0
-139 -100 0
-140 -101 0
-141 -102 0
